387,555
254,623
261,406
267,341
629,478
641,486
567,369
427,152
390,195
536,301
567,369
699,288
888,438
698,430
740,397
999,724
1006,355
829,-50
699,288
786,261
977,452
1214,490
1081,202
1006,355
698,430
677,435
629,478
390,617
